unsat
(define-fun f ((x0 (BitVec 64)) (x1 (BitVec 64))) (BitVec 64) (bvsub x0 x1))
(define-fun f ((x0 (BitVec 64)) (x1 (BitVec 64))) (BitVec 64) (bvsub x0 x1))
int-arith8.sl running time : 0 m .072667578 s
times : .072667578
